certificates/rado_a13_c205_N31.cnf
c Rad2 upper bound instance: x1 + 13*x2 - x3 = 205, interval [1,31]
p cnf 31 148
1 4 16 0
-1 -4 -16 0
1 17 0
-1 -17 0
1 18 30 0
-1 -18 -30 0
2 5 16 0
-2 -5 -16 0
2 17 18 0
-2 -17 -18 0
2 18 31 0
-2 -18 -31 0
3 6 16 0
-3 -6 -16 0
3 17 19 0
-3 -17 -19 0
4 7 16 0
-4 -7 -16 0
4 17 20 0
-4 -17 -20 0
5 8 16 0
-5 -8 -16 0
5 17 21 0
-5 -17 -21 0
6 9 16 0
-6 -9 -16 0
6 17 22 0
-6 -17 -22 0
7 10 16 0
-7 -10 -16 0
7 17 23 0
-7 -17 -23 0
8 11 16 0
-8 -11 -16 0
8 17 24 0
-8 -17 -24 0
9 12 16 0
-9 -12 -16 0
9 17 25 0
-9 -17 -25 0
10 13 16 0
-10 -13 -16 0
10 17 26 0
-10 -17 -26 0
1 11 15 0
-1 -11 -15 0
11 14 16 0
-11 -14 -16 0
11 17 27 0
-11 -17 -27 0
2 12 15 0
-2 -12 -15 0
12 15 16 0
-12 -15 -16 0
12 17 28 0
-12 -17 -28 0
3 13 15 0
-3 -13 -15 0
13 16 0
-13 -16 0
13 17 29 0
-13 -17 -29 0
4 14 15 0
-4 -14 -15 0
14 16 17 0
-14 -16 -17 0
14 17 30 0
-14 -17 -30 0
5 15 0
-5 -15 0
15 16 18 0
-15 -16 -18 0
15 17 31 0
-15 -17 -31 0
6 15 16 0
-6 -15 -16 0
16 19 0
-16 -19 0
7 15 17 0
-7 -15 -17 0
16 17 20 0
-16 -17 -20 0
8 15 18 0
-8 -15 -18 0
16 18 21 0
-16 -18 -21 0
9 15 19 0
-9 -15 -19 0
16 19 22 0
-16 -19 -22 0
10 15 20 0
-10 -15 -20 0
16 20 23 0
-16 -20 -23 0
11 15 21 0
-11 -15 -21 0
16 21 24 0
-16 -21 -24 0
12 15 22 0
-12 -15 -22 0
16 22 25 0
-16 -22 -25 0
13 15 23 0
-13 -15 -23 0
16 23 26 0
-16 -23 -26 0
1 14 24 0
-1 -14 -24 0
14 15 24 0
-14 -15 -24 0
16 24 27 0
-16 -24 -27 0
2 14 25 0
-2 -14 -25 0
15 25 0
-15 -25 0
16 25 28 0
-16 -25 -28 0
3 14 26 0
-3 -14 -26 0
15 16 26 0
-15 -16 -26 0
16 26 29 0
-16 -26 -29 0
4 14 27 0
-4 -14 -27 0
15 17 27 0
-15 -17 -27 0
16 27 30 0
-16 -27 -30 0
5 14 28 0
-5 -14 -28 0
15 18 28 0
-15 -18 -28 0
16 28 31 0
-16 -28 -31 0
6 14 29 0
-6 -14 -29 0
15 19 29 0
-15 -19 -29 0
7 14 30 0
-7 -14 -30 0
15 20 30 0
-15 -20 -30 0
8 14 31 0
-8 -14 -31 0
15 21 31 0
-15 -21 -31 0
