certificates/rado_a13_c205_N31.drat
16 -29 -30 0
-18 -16 -31 0
-16 -31 0
d -28 -16 -31 0
18 -31 0
-30 -31 0
-17 -31 0
-31 0
17 -19 0
16 0
-13 0
-19 0
-17 0
1 0
15 0
29 0
3 0
-4 0
-11 0
-12 0
-5 0
-18 0
-6 0
-25 0
-26 0
20 0
27 0
28 0
21 0
2 0
22 0
9 0
10 0
-23 0
-30 0
0
